103 6
11 10 12 13 13 13
1 0 0 0 0 0 0 3 2 3 4
1 0 0 0 0 9 0 4 5 6 7 8
10 0 0 6 0 8 0 4 103 6 7 8
1 7 2 0 0 0 0 3 5 6 7
1 1 0 10 4 6 9 4 9 10 11 12
1 10 4 2 5 5 0 3 9 11 12
9 0 5 0 0 7 3 4 9 10 11 12
4 8 7 9 2 0 8 3 9 10 11
2 0 0 8 2 10 6 3 13 15 16
7 5 0 4 9 1 6 3 13 15 16
2 9 0 6 10 0 8 4 13 14 15 16
1 4 0 5 5 6 0 3 13 15 16
8 0 10 0 2 7 0 3 17 18 20
4 2 9 0 0 0 9 4 17 18 19 20
1 0 0 3 10 0 9 3 17 18 20
1 0 7 0 5 9 4 4 17 18 19 20
6 0 2 3 0 4 0 3 21 22 24
1 2 0 0 0 7 0 3 21 22 23
1 0 0 2 0 8 3 2 21 22
3 0 3 6 8 6 0 3 21 22 24
2 0 4 0 1 2 1 4 25 26 27 28
1 1 0 6 0 1 0 4 25 26 27 28
1 6 0 7 10 0 0 3 25 27 28
1 0 0 4 5 0 0 4 25 26 27 28
5 0 0 0 0 0 10 3 30 31 32
9 2 0 0 0 4 0 3 30 31 32
1 10 6 10 0 0 0 4 29 30 31 32
1 0 0 0 10 0 7 4 29 30 31 32
1 7 7 9 8 0 8 4 33 34 35 36
5 0 7 1 0 0 0 3 34 35 36
1 0 10 7 4 0 0 3 34 35 36
5 0 0 0 3 7 1 3 33 35 36
3 0 0 7 3 1 0 3 38 39 40
6 0 1 0 7 0 4 4 37 38 39 40
1 8 3 4 9 0 0 3 38 39 40
9 0 4 0 3 0 0 3 37 39 40
7 0 0 0 0 10 0 4 41 42 43 44
1 0 3 3 9 0 8 3 42 43 44
4 6 0 0 0 0 1 4 41 42 43 44
1 0 2 2 6 8 0 2 41 43
3 10 9 0 0 9 0 3 46 47 48
7 8 2 0 3 1 3 4 45 46 47 48
3 10 0 0 0 10 0 4 45 46 47 48
3 0 0 7 0 0 10 3 45 46 48
2 2 8 0 0 0 0 3 49 50 52
1 6 6 6 8 9 9 3 49 50 52
7 0 0 0 9 6 6 4 49 50 51 52
1 0 2 2 0 10 10 3 49 50 51
10 2 0 0 10 8 0 4 53 54 55 56
1 4 0 0 6 9 10 1 53
1 1 0 6 0 0 1 3 54 55 56
1 0 9 9 10 0 3 2 54 56
10 6 10 5 8 6 0 2 58 59
1 0 9 7 2 5 4 4 57 58 59 60
2 0 0 2 8 0 2 3 57 58 59
1 5 5 0 5 1 0 3 57 58 59
1 2 0 0 0 3 7 3 61 62 63
10 0 0 5 6 0 6 3 61 62 63
4 6 0 7 0 7 0 3 62 63 64
6 3 0 0 0 0 5 4 61 62 63 64
3 7 0 0 0 2 0 3 65 66 68
8 9 0 0 5 2 3 4 65 66 67 68
1 0 7 10 0 0 0 4 65 66 67 68
6 0 4 1 0 4 8 4 65 66 67 68
1 0 0 4 0 1 5 3 70 71 72
8 0 8 0 1 0 10 3 70 71 72
1 5 0 0 0 0 2 4 69 70 71 72
7 0 1 5 8 5 7 3 69 70 72
1 5 0 10 0 1 1 4 73 74 75 76
1 9 4 4 0 0 0 4 73 74 75 76
6 3 0 0 0 6 2 4 73 74 75 76
1 0 0 0 9 0 4 4 73 74 75 76
7 0 1 4 7 4 0 1 80
5 7 4 0 0 2 0 4 77 78 79 80
1 0 0 0 0 0 0 3 77 79 80
1 0 0 0 10 0 0 4 77 78 79 80
1 0 7 0 0 0 0 4 81 82 83 84
6 0 0 7 0 0 0 4 81 82 83 84
1 8 2 0 0 1 0 3 81 82 84
1 0 5 0 0 9 0 2 82 84
5 0 0 0 6 4 5 4 85 86 87 88
2 0 0 0 0 0 5 3 85 87 88
1 1 0 7 0 9 8 2 86 87
1 0 0 4 5 2 1 3 85 87 88
5 10 2 1 2 0 4 4 89 90 91 92
1 4 0 10 0 0 1 4 89 90 91 92
7 2 10 0 6 7 6 2 89 91
9 0 6 0 9 0 0 4 89 90 91 92
5 2 0 7 0 0 10 2 94 96
1 1 0 1 0 0 8 3 94 95 96
3 0 3 0 0 8 8 3 93 94 96
8 0 0 10 0 9 0 4 93 94 95 96
10 2 0 2 2 1 10 4 97 98 99 100
2 0 8 6 7 0 0 3 97 98 99
1 0 0 0 0 0 8 1 99
1 0 0 0 7 0 0 3 97 99 100
6 0 1 1 0 8 0 1 101
10 5 0 1 0 8 0 2 101 102
5 9 0 0 6 0 0 1 101
1 10 6 7 3 0 1 1 101
1 3 9 4 2 0 6 1 103
10 2 0 10 3 4 0 1 103
0 0 0 0 0 0 0 0
